NAME: Christofides-8
BEST_KNOWN: 865.94
COMMENT: 865.940000
DIMENSION: 101
CAPACITY: 200
DISTANCE: 230
SERVICE_TIME: 10.000
EDGE_WEIGHT_FORMAT: FUNCTION
EDGE_WEIGHT_TYPE: EXACT_2D
NODE_COORD_SECTION
1 0.00000 0.00000
2 6.00000 14.00000
3 0.00000 -18.00000
4 20.00000 10.00000
5 20.00000 -15.00000
6 -20.00000 -5.00000
7 -10.00000 -5.00000
8 -15.00000 15.00000
9 -25.00000 8.00000
10 20.00000 25.00000
11 -5.00000 25.00000
12 -15.00000 30.00000
13 15.00000 0.00000
14 -5.00000 -10.00000
15 -20.00000 -25.00000
16 -5.00000 -30.00000
17 -25.00000 -15.00000
18 -30.00000 -5.00000
19 -15.00000 5.00000
20 -20.00000 25.00000
21 10.00000 30.00000
22 10.00000 -15.00000
23 10.00000 -25.00000
24 20.00000 -30.00000
25 30.00000 0.00000
26 30.00000 -15.00000
27 10.00000 -5.00000
28 0.00000 5.00000
29 6.00000 2.00000
30 29.00000 7.00000
31 5.00000 25.00000
32 -4.00000 17.00000
33 0.00000 34.00000
34 18.00000 17.00000
35 30.00000 20.00000
36 28.00000 30.00000
37 -33.00000 25.00000
38 -15.00000 -15.00000
39 -30.00000 -30.00000
40 25.00000 -23.00000
41 5.00000 -10.00000
42 7.00000 -28.00000
43 -11.00000 -23.00000
44 -12.00000 -32.00000
45 -24.00000 -21.00000
46 -29.00000 3.00000
47 -33.00000 13.00000
48 -27.00000 21.00000
49 -22.00000 17.00000
50 -29.00000 33.00000
51 12.00000 12.00000
52 14.00000 23.00000
53 -8.00000 8.00000
54 2.00000 -4.00000
55 22.00000 -6.00000
56 28.00000 -12.00000
57 18.00000 -23.00000
58 -3.00000 -23.00000
59 1.00000 -9.00000
60 -14.00000 -11.00000
61 -18.00000 -1.00000
62 -23.00000 -11.00000
63 -11.00000 23.00000
64 -8.00000 34.00000
65 -20.00000 42.00000
66 27.00000 42.00000
67 14.00000 38.00000
68 32.00000 -30.00000
69 21.00000 4.00000
70 2.00000 12.00000
71 2.00000 21.00000
72 22.00000 33.00000
73 12.00000 -19.00000
74 9.00000 -18.00000
75 11.00000 -22.00000
76 14.00000 -24.00000
77 14.00000 7.00000
78 18.00000 8.00000
79 26.00000 17.00000
80 22.00000 13.00000
81 21.00000 2.00000
82 20.00000 19.00000
83 -20.00000 12.00000
84 -21.00000 2.00000
85 -24.00000 -4.00000
86 -19.00000 -13.00000
87 -31.00000 -17.00000
88 -7.00000 -17.00000
89 -9.00000 17.00000
90 -9.00000 0.00000
91 -4.00000 32.00000
92 -20.00000 -16.00000
93 -13.00000 -13.00000
94 -17.00000 -11.00000
95 -9.00000 -8.00000
96 -10.00000 -11.00000
97 -13.00000 -8.00000
98 -10.00000 -14.00000
99 -16.00000 -14.00000
100 -15.00000 -9.00000
101 -17.00000 -17.00000
DEMAND_SECTION
1 0
2 10
3 7
4 13
5 19
6 26
7 3
8 5
9 9
10 16
11 16
12 12
13 19
14 23
15 20
16 8
17 19
18 2
19 12
20 17
21 9
22 11
23 18
24 29
25 3
26 6
27 17
28 16
29 16
30 9
31 21
32 27
33 23
34 11
35 14
36 8
37 5
38 8
39 16
40 31
41 9
42 5
43 5
44 7
45 18
46 16
47 1
48 27
49 36
50 30
51 13
52 10
53 9
54 14
55 18
56 2
57 6
58 7
59 18
60 28
61 3
62 13
63 19
64 10
65 9
66 20
67 25
68 25
69 36
70 6
71 5
72 15
73 25
74 9
75 8
76 18
77 13
78 14
79 3
80 23
81 6
82 26
83 16
84 11
85 7
86 41
87 35
88 26
89 9
90 15
91 3
92 1
93 2
94 22
95 27
96 20
97 11
98 12
99 10
100 9
101 17
DEPOT_SECTION
1
-1
EOF
